-399.0 3.0 7.0 7.0 1.0 4.0 0.0 10.0 9.0 1.0 10.0 1.0 7.0 3.0 3.0 0.0 8.0 9.0 8.0 10.0 10.0 3.0 6.0 6.0 7.0 5.0 2.0 10.0 5.0 3.0 0.0 9.0 2.0 8.0 10.0 0.0 6.0 10.0 0.0 7.0 4.0 6.0 8.0 7.0 10.0 9.0 7.0 1.0 0.0 10.0 5.0 4.0 5.0 0.0 6.0 7.0 1.0 6.0 8.0 6.0 3.0 1.0 3.0 2.0 6.0 9.0 3.0 1.0 7.0 10.0 10.0 4.0 3.0 9.0 3.0 4.0 1.0 
3.0 -407.0 7.0 8.0 10.0 4.0 4.0 4.0 6.0 6.0 10.0 5.0 6.0 8.0 1.0 8.0 4.0 10.0 9.0 4.0 1.0 8.0 5.0 10.0 6.0 7.0 3.0 9.0 7.0 10.0 10.0 8.0 3.0 7.0 7.0 7.0 8.0 10.0 1.0 7.0 8.0 9.0 5.0 9.0 10.0 1.0 9.0 8.0 2.0 8.0 2.0 9.0 4.0 8.0 2.0 4.0 2.0 6.0 9.0 1.0 6.0 2.0 4.0 1.0 4.0 1.0 4.0 2.0 3.0 9.0 4.0 0.0 0.0 0.0 0.0 0.0 0.0 
7.0 7.0 -419.0 8.0 2.0 2.0 5.0 0.0 3.0 7.0 5.0 9.0 8.0 7.0 8.0 7.0 6.0 6.0 4.0 10.0 0.0 3.0 6.0 10.0 9.0 5.0 0.0 9.0 5.0 7.0 3.0 9.0 7.0 6.0 5.0 5.0 3.0 2.0 10.0 6.0 8.0 8.0 10.0 5.0 0.0 8.0 0.0 8.0 0.0 2.0 9.0 1.0 9.0 2.0 8.0 2.0 7.0 9.0 10.0 2.0 3.0 0.0 3.0 9.0 10.0 6.0 2.0 2.0 5.0 0.0 7.0 9.0 10.0 6.0 2.0 6.0 10.0 
7.0 8.0 8.0 -425.0 5.0 7.0 9.0 9.0 3.0 4.0 4.0 7.0 7.0 2.0 0.0 6.0 1.0 2.0 10.0 3.0 0.0 1.0 2.0 3.0 2.0 10.0 10.0 10.0 3.0 8.0 5.0 2.0 4.0 9.0 1.0 8.0 1.0 7.0 8.0 9.0 10.0 10.0 6.0 5.0 8.0 8.0 4.0 3.0 8.0 0.0 9.0 6.0 10.0 5.0 7.0 10.0 8.0 1.0 8.0 0.0 1.0 4.0 7.0 6.0 5.0 9.0 6.0 4.0 6.0 5.0 4.0 8.0 4.0 5.0 5.0 5.0 10.0 
1.0 10.0 2.0 5.0 -414.0 1.0 3.0 6.0 6.0 1.0 6.0 2.0 5.0 6.0 8.0 8.0 6.0 3.0 1.0 6.0 9.0 10.0 10.0 7.0 7.0 3.0 9.0 3.0 0.0 7.0 6.0 1.0 2.0 7.0 6.0 3.0 2.0 0.0 6.0 10.0 10.0 5.0 1.0 3.0 9.0 7.0 8.0 1.0 9.0 10.0 10.0 4.0 8.0 7.0 8.0 1.0 5.0 6.0 9.0 2.0 1.0 5.0 0.0 8.0 4.0 9.0 3.0 4.0 7.0 9.0 10.0 6.0 8.0 2.0 10.0 2.0 9.0 
4.0 4.0 2.0 7.0 1.0 -385.0 5.0 3.0 8.0 6.0 9.0 0.0 5.0 5.0 10.0 7.0 3.0 3.0 6.0 5.0 6.0 5.0 0.0 6.0 6.0 10.0 2.0 6.0 4.0 3.0 4.0 10.0 10.0 5.0 3.0 4.0 1.0 10.0 0.0 10.0 8.0 0.0 4.0 7.0 4.0 6.0 0.0 7.0 5.0 8.0 8.0 2.0 1.0 8.0 9.0 9.0 6.0 4.0 3.0 3.0 7.0 7.0 2.0 3.0 1.0 6.0 9.0 1.0 8.0 9.0 7.0 6.0 7.0 9.0 1.0 2.0 0.0 
0.0 4.0 5.0 9.0 3.0 5.0 -347.0 8.0 9.0 9.0 4.0 4.0 3.0 8.0 4.0 8.0 5.0 1.0 6.0 8.0 5.0 8.0 1.0 1.0 3.0 3.0 4.0 9.0 3.0 1.0 0.0 6.0 1.0 3.0 1.0 1.0 2.0 4.0 3.0 0.0 5.0 2.0 6.0 8.0 9.0 4.0 2.0 5.0 8.0 9.0 1.0 3.0 9.0 2.0 10.0 3.0 2.0 4.0 3.0 10.0 4.0 0.0 1.0 7.0 6.0 9.0 10.0 3.0 2.0 8.0 8.0 3.0 10.0 5.0 1.0 2.0 1.0 
10.0 4.0 0.0 9.0 6.0 3.0 8.0 -343.0 0.0 2.0 1.0 1.0 5.0 2.0 0.0 3.0 5.0 10.0 6.0 3.0 8.0 3.0 4.0 2.0 4.0 6.0 0.0 10.0 0.0 4.0 6.0 2.0 1.0 10.0 6.0 5.0 6.0 5.0 2.0 3.0 5.0 9.0 2.0 1.0 5.0 3.0 3.0 1.0 10.0 0.0 2.0 1.0 0.0 10.0 5.0 5.0 7.0 3.0 8.0 4.0 8.0 8.0 5.0 7.0 1.0 1.0 4.0 9.0 8.0 8.0 0.0 9.0 7.0 7.0 2.0 3.0 7.0 
9.0 6.0 3.0 3.0 6.0 8.0 9.0 0.0 -342.0 0.0 6.0 7.0 4.0 4.0 0.0 8.0 2.0 2.0 8.0 5.0 2.0 4.0 2.0 4.0 9.0 4.0 1.0 7.0 5.0 3.0 6.0 0.0 6.0 10.0 4.0 10.0 4.0 2.0 5.0 10.0 4.0 0.0 2.0 1.0 6.0 2.0 4.0 0.0 2.0 4.0 8.0 9.0 6.0 0.0 0.0 10.0 8.0 2.0 0.0 5.0 0.0 6.0 1.0 9.0 6.0 1.0 10.0 3.0 0.0 1.0 2.0 6.0 10.0 6.0 1.0 9.0 10.0 
1.0 6.0 7.0 4.0 1.0 6.0 9.0 2.0 0.0 -356.0 9.0 3.0 5.0 5.0 8.0 1.0 5.0 3.0 0.0 8.0 4.0 4.0 3.0 4.0 4.0 8.0 1.0 5.0 3.0 1.0 4.0 9.0 0.0 10.0 1.0 10.0 10.0 8.0 10.0 2.0 7.0 5.0 5.0 7.0 1.0 2.0 6.0 3.0 10.0 3.0 9.0 6.0 3.0 6.0 9.0 5.0 2.0 10.0 7.0 1.0 9.0 0.0 5.0 6.0 5.0 9.0 2.0 5.0 2.0 0.0 4.0 1.0 2.0 0.0 2.0 3.0 10.0 
10.0 10.0 5.0 4.0 6.0 9.0 4.0 1.0 6.0 9.0 -409.0 7.0 10.0 5.0 3.0 7.0 6.0 6.0 8.0 4.0 7.0 4.0 7.0 5.0 10.0 1.0 1.0 4.0 6.0 10.0 8.0 4.0 2.0 2.0 5.0 4.0 8.0 2.0 6.0 3.0 7.0 4.0 8.0 6.0 4.0 1.0 9.0 5.0 0.0 3.0 5.0 4.0 6.0 2.0 6.0 9.0 7.0 8.0 6.0 2.0 8.0 2.0 6.0 6.0 0.0 8.0 0.0 9.0 2.0 2.0 5.0 5.0 4.0 6.0 8.0 10.0 7.0 
1.0 5.0 9.0 7.0 2.0 0.0 4.0 1.0 7.0 3.0 7.0 -403.0 2.0 5.0 0.0 2.0 5.0 3.0 8.0 7.0 10.0 7.0 3.0 7.0 10.0 3.0 9.0 1.0 1.0 9.0 9.0 10.0 9.0 9.0 7.0 1.0 4.0 4.0 3.0 10.0 8.0 0.0 10.0 0.0 8.0 7.0 6.0 10.0 4.0 5.0 4.0 2.0 7.0 3.0 3.0 4.0 9.0 1.0 6.0 9.0 10.0 9.0 2.0 5.0 3.0 3.0 1.0 8.0 9.0 0.0 8.0 1.0 10.0 3.0 3.0 8.0 10.0 
7.0 6.0 8.0 7.0 5.0 5.0 3.0 5.0 4.0 5.0 10.0 2.0 -386.0 5.0 1.0 10.0 7.0 2.0 4.0 8.0 8.0 2.0 7.0 7.0 2.0 2.0 5.0 4.0 0.0 4.0 5.0 3.0 4.0 6.0 3.0 1.0 9.0 10.0 2.0 8.0 8.0 7.0 1.0 7.0 6.0 3.0 6.0 3.0 7.0 9.0 6.0 6.0 0.0 5.0 6.0 4.0 9.0 4.0 2.0 4.0 8.0 10.0 2.0 8.0 9.0 4.0 0.0 9.0 6.0 2.0 10.0 2.0 1.0 7.0 2.0 2.0 5.0 
3.0 8.0 7.0 2.0 6.0 5.0 8.0 2.0 4.0 5.0 5.0 5.0 5.0 -392.0 9.0 9.0 1.0 6.0 6.0 5.0 1.0 8.0 8.0 9.0 6.0 1.0 1.0 2.0 2.0 0.0 10.0 4.0 5.0 5.0 10.0 1.0 2.0 3.0 0.0 6.0 4.0 9.0 7.0 5.0 8.0 2.0 3.0 7.0 3.0 2.0 8.0 5.0 10.0 3.0 4.0 9.0 6.0 5.0 4.0 8.0 3.0 6.0 4.0 3.0 1.0 3.0 5.0 7.0 6.0 10.0 10.0 2.0 7.0 7.0 8.0 9.0 4.0 
3.0 1.0 8.0 0.0 8.0 10.0 4.0 0.0 0.0 8.0 3.0 0.0 1.0 9.0 -373.0 7.0 4.0 1.0 5.0 6.0 9.0 9.0 2.0 2.0 3.0 3.0 4.0 0.0 10.0 5.0 8.0 3.0 5.0 3.0 6.0 2.0 8.0 5.0 8.0 3.0 5.0 1.0 7.0 4.0 2.0 8.0 10.0 0.0 9.0 4.0 0.0 0.0 1.0 5.0 8.0 10.0 7.0 8.0 9.0 3.0 1.0 8.0 0.0 10.0 8.0 9.0 6.0 4.0 7.0 7.0 6.0 2.0 9.0 9.0 3.0 7.0 0.0 
0.0 8.0 7.0 6.0 8.0 7.0 8.0 3.0 8.0 1.0 7.0 2.0 10.0 9.0 7.0 -383.0 8.0 2.0 6.0 4.0 6.0 10.0 5.0 4.0 10.0 5.0 7.0 5.0 2.0 7.0 0.0 8.0 4.0 3.0 9.0 2.0 1.0 9.0 3.0 0.0 4.0 2.0 3.0 6.0 2.0 2.0 10.0 1.0 10.0 5.0 2.0 2.0 0.0 10.0 7.0 9.0 6.0 2.0 9.0 3.0 1.0 0.0 9.0 9.0 4.0 5.0 4.0 2.0 3.0 4.0 7.0 1.0 2.0 6.0 7.0 9.0 4.0 
8.0 4.0 6.0 1.0 6.0 3.0 5.0 5.0 2.0 5.0 6.0 5.0 7.0 1.0 4.0 8.0 -377.0 1.0 2.0 0.0 8.0 3.0 5.0 7.0 9.0 4.0 8.0 2.0 2.0 3.0 1.0 0.0 7.0 7.0 5.0 4.0 10.0 0.0 9.0 1.0 9.0 5.0 6.0 7.0 5.0 4.0 10.0 2.0 8.0 2.0 0.0 8.0 6.0 8.0 7.0 1.0 2.0 8.0 8.0 0.0 0.0 4.0 7.0 6.0 8.0 10.0 8.0 8.0 0.0 5.0 7.0 7.0 5.0 1.0 9.0 10.0 2.0 
9.0 10.0 6.0 2.0 3.0 3.0 1.0 10.0 2.0 3.0 6.0 3.0 2.0 6.0 1.0 2.0 1.0 -323.0 1.0 9.0 6.0 3.0 2.0 0.0 9.0 8.0 9.0 0.0 1.0 10.0 6.0 3.0 6.0 1.0 1.0 5.0 0.0 5.0 4.0 5.0 10.0 7.0 1.0 4.0 9.0 7.0 7.0 0.0 5.0 3.0 9.0 0.0 2.0 3.0 4.0 1.0 9.0 6.0 4.0 0.0 2.0 3.0 2.0 3.0 4.0 0.0 4.0 10.0 6.0 0.0 8.0 9.0 2.0 0.0 10.0 1.0 4.0 
8.0 9.0 4.0 10.0 1.0 6.0 6.0 6.0 8.0 0.0 8.0 8.0 4.0 6.0 5.0 6.0 2.0 1.0 -407.0 3.0 1.0 5.0 1.0 7.0 6.0 8.0 4.0 2.0 1.0 7.0 7.0 8.0 5.0 10.0 5.0 10.0 10.0 6.0 5.0 2.0 0.0 7.0 10.0 9.0 3.0 2.0 7.0 10.0 2.0 3.0 8.0 10.0 6.0 3.0 0.0 3.0 7.0 5.0 0.0 6.0 3.0 9.0 2.0 9.0 3.0 9.0 1.0 8.0 5.0 10.0 5.0 7.0 0.0 3.0 7.0 8.0 6.0 
10.0 4.0 10.0 3.0 6.0 5.0 8.0 3.0 5.0 8.0 4.0 7.0 8.0 5.0 6.0 4.0 0.0 9.0 3.0 -447.0 1.0 9.0 9.0 10.0 2.0 8.0 9.0 5.0 2.0 5.0 8.0 8.0 8.0 9.0 9.0 1.0 9.0 1.0 10.0 6.0 10.0 8.0 10.0 7.0 9.0 1.0 3.0 7.0 0.0 3.0 2.0 6.0 10.0 8.0 5.0 1.0 8.0 7.0 7.0 5.0 2.0 5.0 5.0 6.0 8.0 2.0 6.0 1.0 8.0 10.0 5.0 8.0 2.0 9.0 6.0 5.0 5.0 
10.0 1.0 0.0 0.0 9.0 6.0 5.0 8.0 2.0 4.0 7.0 10.0 8.0 1.0 9.0 6.0 8.0 6.0 1.0 1.0 -355.0 4.0 6.0 8.0 1.0 3.0 8.0 5.0 1.0 8.0 7.0 10.0 1.0 0.0 3.0 6.0 7.0 7.0 8.0 4.0 0.0 4.0 10.0 8.0 5.0 3.0 6.0 3.0 4.0 4.0 6.0 10.0 4.0 3.0 0.0 2.0 2.0 5.0 1.0 5.0 1.0 1.0 2.0 10.0 0.0 3.0 1.0 4.0 9.0 2.0 6.0 2.0 4.0 10.0 8.0 0.0 8.0 
3.0 8.0 3.0 1.0 10.0 5.0 8.0 3.0 4.0 4.0 4.0 7.0 2.0 8.0 9.0 10.0 3.0 3.0 5.0 9.0 4.0 -391.0 8.0 9.0 7.0 5.0 5.0 6.0 5.0 0.0 8.0 5.0 4.0 4.0 8.0 5.0 6.0 8.0 9.0 5.0 1.0 8.0 9.0 8.0 10.0 5.0 2.0 2.0 0.0 0.0 4.0 9.0 8.0 7.0 5.0 4.0 4.0 1.0 1.0 1.0 0.0 6.0 6.0 4.0 4.0 4.0 7.0 8.0 2.0 6.0 0.0 4.0 9.0 10.0 4.0 0.0 8.0 
6.0 5.0 6.0 2.0 10.0 0.0 1.0 4.0 2.0 3.0 7.0 3.0 7.0 8.0 2.0 5.0 5.0 2.0 1.0 9.0 6.0 8.0 -372.0 1.0 3.0 0.0 8.0 0.0 3.0 5.0 7.0 7.0 4.0 3.0 6.0 6.0 7.0 5.0 3.0 8.0 2.0 6.0 7.0 5.0 8.0 8.0 1.0 8.0 2.0 5.0 7.0 8.0 3.0 10.0 3.0 7.0 5.0 7.0 2.0 3.0 4.0 10.0 7.0 3.0 2.0 7.0 8.0 1.0 6.0 6.0 4.0 8.0 3.0 3.0 4.0 9.0 2.0 
6.0 10.0 10.0 3.0 7.0 6.0 1.0 2.0 4.0 4.0 5.0 7.0 7.0 9.0 2.0 4.0 7.0 0.0 7.0 10.0 8.0 9.0 1.0 -355.0 6.0 4.0 8.0 1.0 4.0 1.0 3.0 9.0 8.0 7.0 0.0 2.0 0.0 0.0 9.0 1.0 0.0 9.0 2.0 7.0 9.0 8.0 0.0 4.0 3.0 10.0 0.0 10.0 3.0 4.0 1.0 6.0 3.0 0.0 5.0 0.0 1.0 7.0 4.0 2.0 5.0 6.0 4.0 8.0 6.0 1.0 7.0 6.0 2.0 8.0 3.0 0.0 9.0 
7.0 6.0 9.0 2.0 7.0 6.0 3.0 4.0 9.0 4.0 10.0 10.0 2.0 6.0 3.0 10.0 9.0 9.0 6.0 2.0 1.0 7.0 3.0 6.0 -404.0 8.0 6.0 7.0 9.0 0.0 1.0 9.0 4.0 5.0 7.0 10.0 3.0 4.0 9.0 2.0 7.0 5.0 7.0 3.0 5.0 1.0 3.0 2.0 10.0 5.0 1.0 6.0 3.0 4.0 8.0 0.0 0.0 3.0 8.0 10.0 0.0 9.0 8.0 10.0 6.0 2.0 3.0 10.0 7.0 8.0 7.0 1.0 2.0 2.0 2.0 2.0 9.0 
5.0 7.0 5.0 10.0 3.0 10.0 3.0 6.0 4.0 8.0 1.0 3.0 2.0 1.0 3.0 5.0 4.0 8.0 8.0 8.0 3.0 5.0 0.0 4.0 8.0 -401.0 6.0 7.0 7.0 4.0 0.0 1.0 6.0 8.0 5.0 2.0 0.0 1.0 6.0 1.0 9.0 0.0 5.0 0.0 7.0 3.0 8.0 9.0 7.0 5.0 10.0 6.0 2.0 10.0 3.0 10.0 0.0 10.0 9.0 8.0 8.0 2.0 7.0 1.0 7.0 6.0 5.0 5.0 8.0 5.0 9.0 7.0 10.0 2.0 5.0 8.0 7.0 
2.0 3.0 0.0 10.0 9.0 2.0 4.0 0.0 1.0 1.0 1.0 9.0 5.0 1.0 4.0 7.0 8.0 9.0 4.0 9.0 8.0 5.0 8.0 8.0 6.0 6.0 -326.0 10.0 0.0 9.0 0.0 10.0 2.0 1.0 4.0 2.0 0.0 5.0 2.0 2.0 0.0 9.0 2.0 5.0 1.0 1.0 3.0 3.0 8.0 10.0 4.0 1.0 6.0 1.0 2.0 3.0 0.0 0.0 0.0 7.0 7.0 2.0 1.0 7.0 5.0 6.0 3.0 10.0 4.0 5.0 8.0 0.0 7.0 7.0 3.0 6.0 2.0 
10.0 9.0 9.0 10.0 3.0 6.0 9.0 10.0 7.0 5.0 4.0 1.0 4.0 2.0 0.0 5.0 2.0 0.0 2.0 5.0 5.0 6.0 0.0 1.0 7.0 7.0 10.0 -435.0 4.0 5.0 3.0 8.0 10.0 6.0 0.0 10.0 9.0 10.0 5.0 10.0 7.0 9.0 4.0 2.0 0.0 5.0 10.0 1.0 8.0 9.0 3.0 4.0 5.0 4.0 4.0 0.0 7.0 3.0 8.0 9.0 5.0 7.0 7.0 5.0 3.0 9.0 9.0 5.0 10.0 10.0 9.0 6.0 3.0 2.0 7.0 10.0 7.0 
5.0 7.0 5.0 3.0 0.0 4.0 3.0 0.0 5.0 3.0 6.0 1.0 0.0 2.0 10.0 2.0 2.0 1.0 1.0 2.0 1.0 5.0 3.0 4.0 9.0 7.0 0.0 4.0 -342.0 5.0 3.0 7.0 10.0 4.0 5.0 6.0 4.0 9.0 2.0 1.0 9.0 1.0 3.0 10.0 3.0 7.0 4.0 6.0 6.0 1.0 0.0 7.0 0.0 10.0 7.0 4.0 0.0 10.0 3.0 10.0 4.0 9.0 10.0 7.0 5.0 3.0 10.0 10.0 3.0 7.0 7.0 2.0 1.0 6.0 1.0 0.0 5.0 
3.0 10.0 7.0 8.0 7.0 3.0 1.0 4.0 3.0 1.0 10.0 9.0 4.0 0.0 5.0 7.0 3.0 10.0 7.0 5.0 8.0 0.0 5.0 1.0 0.0 4.0 9.0 5.0 5.0 -403.0 1.0 9.0 5.0 8.0 1.0 10.0 5.0 4.0 10.0 0.0 1.0 3.0 10.0 7.0 7.0 7.0 10.0 4.0 7.0 0.0 7.0 10.0 2.0 8.0 7.0 3.0 3.0 8.0 0.0 9.0 2.0 2.0 7.0 2.0 0.0 2.0 7.0 7.0 10.0 2.0 10.0 10.0 7.0 5.0 5.0 6.0 9.0 
0.0 10.0 3.0 5.0 6.0 4.0 0.0 6.0 6.0 4.0 8.0 9.0 5.0 10.0 8.0 0.0 1.0 6.0 7.0 8.0 7.0 8.0 7.0 3.0 1.0 0.0 0.0 3.0 3.0 1.0 -365.0 4.0 4.0 4.0 9.0 0.0 10.0 2.0 2.0 1.0 7.0 7.0 8.0 6.0 8.0 1.0 9.0 5.0 9.0 4.0 4.0 8.0 4.0 1.0 10.0 4.0 6.0 2.0 9.0 4.0 9.0 1.0 2.0 4.0 1.0 1.0 0.0 10.0 6.0 8.0 8.0 1.0 10.0 5.0 1.0 4.0 3.0 
9.0 8.0 9.0 2.0 1.0 10.0 6.0 2.0 0.0 9.0 4.0 10.0 3.0 4.0 3.0 8.0 0.0 3.0 8.0 8.0 10.0 5.0 7.0 9.0 9.0 1.0 10.0 8.0 7.0 9.0 4.0 -415.0 0.0 10.0 0.0 0.0 1.0 4.0 10.0 7.0 7.0 2.0 3.0 10.0 0.0 6.0 4.0 5.0 3.0 6.0 5.0 6.0 6.0 6.0 8.0 8.0 1.0 0.0 8.0 5.0 7.0 5.0 10.0 6.0 5.0 7.0 7.0 3.0 1.0 7.0 6.0 9.0 8.0 4.0 2.0 9.0 2.0 
2.0 3.0 7.0 4.0 2.0 10.0 1.0 1.0 6.0 0.0 2.0 9.0 4.0 5.0 5.0 4.0 7.0 6.0 5.0 8.0 1.0 4.0 4.0 8.0 4.0 6.0 2.0 10.0 10.0 5.0 4.0 0.0 -419.0 7.0 7.0 8.0 10.0 9.0 2.0 6.0 5.0 2.0 5.0 6.0 1.0 7.0 9.0 10.0 7.0 10.0 9.0 8.0 10.0 10.0 0.0 8.0 10.0 9.0 1.0 7.0 5.0 5.0 5.0 3.0 10.0 1.0 10.0 5.0 4.0 8.0 10.0 10.0 0.0 2.0 5.0 0.0 4.0 
8.0 7.0 6.0 9.0 7.0 5.0 3.0 10.0 10.0 10.0 2.0 9.0 6.0 5.0 3.0 3.0 7.0 1.0 10.0 9.0 0.0 4.0 3.0 7.0 5.0 8.0 1.0 6.0 4.0 8.0 4.0 10.0 7.0 -456.0 9.0 4.0 3.0 5.0 7.0 9.0 5.0 10.0 4.0 0.0 8.0 1.0 1.0 5.0 7.0 5.0 10.0 9.0 1.0 10.0 2.0 10.0 9.0 3.0 3.0 8.0 8.0 9.0 0.0 0.0 10.0 10.0 10.0 4.0 7.0 10.0 6.0 4.0 5.0 9.0 0.0 9.0 10.0 
10.0 7.0 5.0 1.0 6.0 3.0 1.0 6.0 4.0 1.0 5.0 7.0 3.0 10.0 6.0 9.0 5.0 1.0 5.0 9.0 3.0 8.0 6.0 0.0 7.0 5.0 4.0 0.0 5.0 1.0 9.0 0.0 7.0 9.0 -367.0 6.0 9.0 4.0 5.0 9.0 4.0 0.0 0.0 4.0 4.0 10.0 9.0 8.0 1.0 2.0 4.0 4.0 10.0 1.0 1.0 5.0 9.0 0.0 6.0 7.0 4.0 3.0 5.0 4.0 0.0 4.0 3.0 3.0 10.0 8.0 2.0 7.0 5.0 3.0 4.0 8.0 4.0 
0.0 7.0 5.0 8.0 3.0 4.0 1.0 5.0 10.0 10.0 4.0 1.0 1.0 1.0 2.0 2.0 4.0 5.0 10.0 1.0 6.0 5.0 6.0 2.0 10.0 2.0 2.0 10.0 6.0 10.0 0.0 0.0 8.0 4.0 6.0 -321.0 8.0 2.0 7.0 1.0 1.0 5.0 2.0 1.0 6.0 7.0 5.0 9.0 8.0 2.0 0.0 1.0 1.0 1.0 4.0 6.0 1.0 1.0 10.0 9.0 2.0 2.0 3.0 5.0 3.0 2.0 9.0 0.0 2.0 0.0 2.0 10.0 7.0 4.0 0.0 5.0 6.0 
6.0 8.0 3.0 1.0 2.0 1.0 2.0 6.0 4.0 10.0 8.0 4.0 9.0 2.0 8.0 1.0 10.0 0.0 10.0 9.0 7.0 6.0 7.0 0.0 3.0 0.0 0.0 9.0 4.0 5.0 10.0 1.0 10.0 3.0 9.0 8.0 -396.0 0.0 3.0 9.0 9.0 3.0 3.0 4.0 4.0 1.0 7.0 7.0 4.0 7.0 8.0 10.0 4.0 3.0 6.0 8.0 2.0 0.0 8.0 6.0 4.0 10.0 5.0 5.0 5.0 2.0 7.0 5.0 0.0 9.0 9.0 3.0 7.0 2.0 2.0 10.0 9.0 
10.0 10.0 2.0 7.0 0.0 10.0 4.0 5.0 2.0 8.0 2.0 4.0 10.0 3.0 5.0 9.0 0.0 5.0 6.0 1.0 7.0 8.0 5.0 0.0 4.0 1.0 5.0 10.0 9.0 4.0 2.0 4.0 9.0 5.0 4.0 2.0 0.0 -409.0 5.0 8.0 3.0 6.0 10.0 9.0 10.0 2.0 10.0 8.0 2.0 4.0 6.0 4.0 6.0 2.0 0.0 9.0 9.0 5.0 4.0 9.0 0.0 6.0 5.0 8.0 8.0 5.0 6.0 5.0 3.0 9.0 8.0 6.0 6.0 10.0 2.0 5.0 4.0 
0.0 1.0 10.0 8.0 6.0 0.0 3.0 2.0 5.0 10.0 6.0 3.0 2.0 0.0 8.0 3.0 9.0 4.0 5.0 10.0 8.0 9.0 3.0 9.0 9.0 6.0 2.0 5.0 2.0 10.0 2.0 10.0 2.0 7.0 5.0 7.0 3.0 5.0 -378.0 7.0 8.0 9.0 1.0 8.0 5.0 5.0 1.0 4.0 4.0 8.0 3.0 4.0 9.0 5.0 0.0 6.0 0.0 5.0 5.0 7.0 9.0 2.0 3.0 6.0 2.0 5.0 6.0 5.0 8.0 0.0 0.0 5.0 1.0 4.0 2.0 7.0 10.0 
7.0 7.0 6.0 9.0 10.0 10.0 0.0 3.0 10.0 2.0 3.0 10.0 8.0 6.0 3.0 0.0 1.0 5.0 2.0 6.0 4.0 5.0 8.0 1.0 2.0 1.0 2.0 10.0 1.0 0.0 1.0 7.0 6.0 9.0 9.0 1.0 9.0 8.0 7.0 -393.0 1.0 3.0 4.0 9.0 9.0 2.0 8.0 8.0 2.0 5.0 1.0 9.0 7.0 5.0 10.0 5.0 0.0 10.0 7.0 2.0 8.0 5.0 7.0 5.0 10.0 4.0 5.0 4.0 6.0 10.0 3.0 1.0 0.0 9.0 10.0 0.0 0.0 
4.0 8.0 8.0 10.0 10.0 8.0 5.0 5.0 4.0 7.0 7.0 8.0 8.0 4.0 5.0 4.0 9.0 10.0 0.0 10.0 0.0 1.0 2.0 0.0 7.0 9.0 0.0 7.0 9.0 1.0 7.0 7.0 5.0 5.0 4.0 1.0 9.0 3.0 8.0 1.0 -401.0 5.0 6.0 2.0 4.0 5.0 6.0 10.0 4.0 7.0 1.0 5.0 5.0 10.0 0.0 3.0 2.0 9.0 10.0 3.0 9.0 3.0 7.0 0.0 4.0 6.0 9.0 8.0 7.0 6.0 0.0 6.0 2.0 9.0 0.0 8.0 0.0 
6.0 9.0 8.0 10.0 5.0 0.0 2.0 9.0 0.0 5.0 4.0 0.0 7.0 9.0 1.0 2.0 5.0 7.0 7.0 8.0 4.0 8.0 6.0 9.0 5.0 0.0 9.0 9.0 1.0 3.0 7.0 2.0 2.0 10.0 0.0 5.0 3.0 6.0 9.0 3.0 5.0 -400.0 6.0 1.0 9.0 6.0 5.0 9.0 6.0 7.0 10.0 10.0 7.0 8.0 5.0 1.0 9.0 4.0 7.0 10.0 8.0 5.0 2.0 4.0 1.0 9.0 0.0 4.0 5.0 8.0 5.0 1.0 5.0 3.0 2.0 0.0 8.0 
8.0 5.0 10.0 6.0 1.0 4.0 6.0 2.0 2.0 5.0 8.0 10.0 1.0 7.0 7.0 3.0 6.0 1.0 10.0 10.0 10.0 9.0 7.0 2.0 7.0 5.0 2.0 4.0 3.0 10.0 8.0 3.0 5.0 4.0 0.0 2.0 3.0 10.0 1.0 4.0 6.0 6.0 -376.0 0.0 2.0 7.0 0.0 6.0 1.0 6.0 8.0 3.0 2.0 8.0 9.0 2.0 4.0 1.0 5.0 4.0 10.0 9.0 1.0 1.0 0.0 4.0 1.0 10.0 2.0 9.0 7.0 5.0 5.0 4.0 0.0 8.0 9.0 
7.0 9.0 5.0 5.0 3.0 7.0 8.0 1.0 1.0 7.0 6.0 0.0 7.0 5.0 4.0 6.0 7.0 4.0 9.0 7.0 8.0 8.0 5.0 7.0 3.0 0.0 5.0 2.0 10.0 7.0 6.0 10.0 6.0 0.0 4.0 1.0 4.0 9.0 8.0 9.0 2.0 1.0 0.0 -418.0 9.0 7.0 0.0 9.0 5.0 7.0 7.0 6.0 9.0 5.0 9.0 2.0 5.0 1.0 1.0 1.0 8.0 9.0 5.0 10.0 5.0 9.0 6.0 8.0 4.0 10.0 4.0 1.0 5.0 2.0 10.0 9.0 7.0 
10.0 10.0 0.0 8.0 9.0 4.0 9.0 5.0 6.0 1.0 4.0 8.0 6.0 8.0 2.0 2.0 5.0 9.0 3.0 9.0 5.0 10.0 8.0 9.0 5.0 7.0 1.0 0.0 3.0 7.0 8.0 0.0 1.0 8.0 4.0 6.0 4.0 10.0 5.0 9.0 4.0 9.0 2.0 9.0 -430.0 5.0 1.0 9.0 9.0 10.0 10.0 10.0 9.0 2.0 9.0 7.0 3.0 3.0 4.0 1.0 8.0 5.0 10.0 5.0 10.0 4.0 3.0 3.0 7.0 2.0 5.0 6.0 6.0 2.0 2.0 8.0 0.0 
9.0 1.0 8.0 8.0 7.0 6.0 4.0 3.0 2.0 2.0 1.0 7.0 3.0 2.0 8.0 2.0 4.0 7.0 2.0 1.0 3.0 5.0 8.0 8.0 1.0 3.0 1.0 5.0 7.0 7.0 1.0 6.0 7.0 1.0 10.0 7.0 1.0 2.0 5.0 2.0 5.0 6.0 7.0 7.0 5.0 -364.0 3.0 3.0 8.0 9.0 9.0 9.0 3.0 4.0 10.0 8.0 1.0 8.0 9.0 8.0 8.0 2.0 0.0 8.0 3.0 10.0 1.0 1.0 0.0 10.0 4.0 4.0 4.0 1.0 5.0 4.0 0.0 
7.0 9.0 0.0 4.0 8.0 0.0 2.0 3.0 4.0 6.0 9.0 6.0 6.0 3.0 10.0 10.0 10.0 7.0 7.0 3.0 6.0 2.0 1.0 0.0 3.0 8.0 3.0 10.0 4.0 10.0 9.0 4.0 9.0 1.0 9.0 5.0 7.0 10.0 1.0 8.0 6.0 5.0 0.0 0.0 1.0 3.0 -351.0 6.0 5.0 9.0 7.0 5.0 5.0 7.0 8.0 2.0 1.0 6.0 1.0 5.0 6.0 0.0 0.0 3.0 3.0 4.0 3.0 4.0 1.0 0.0 0.0 2.0 3.0 0.0 6.0 6.0 4.0 
1.0 8.0 8.0 3.0 1.0 7.0 5.0 1.0 0.0 3.0 5.0 10.0 3.0 7.0 0.0 1.0 2.0 0.0 10.0 7.0 3.0 2.0 8.0 4.0 2.0 9.0 3.0 1.0 6.0 4.0 5.0 5.0 10.0 5.0 8.0 9.0 7.0 8.0 4.0 8.0 10.0 9.0 6.0 9.0 9.0 3.0 6.0 -369.0 10.0 1.0 9.0 5.0 9.0 10.0 1.0 1.0 0.0 10.0 0.0 7.0 4.0 0.0 2.0 7.0 3.0 3.0 7.0 5.0 2.0 4.0 1.0 0.0 7.0 6.0 0.0 2.0 8.0 
0.0 2.0 0.0 8.0 9.0 5.0 8.0 10.0 2.0 10.0 0.0 4.0 7.0 3.0 9.0 10.0 8.0 5.0 2.0 0.0 4.0 0.0 2.0 3.0 10.0 7.0 8.0 8.0 6.0 7.0 9.0 3.0 7.0 7.0 1.0 8.0 4.0 2.0 4.0 2.0 4.0 6.0 1.0 5.0 9.0 8.0 5.0 10.0 -398.0 6.0 6.0 6.0 5.0 3.0 5.0 2.0 3.0 2.0 7.0 7.0 8.0 6.0 3.0 0.0 3.0 5.0 7.0 6.0 7.0 6.0 7.0 10.0 7.0 9.0 6.0 3.0 1.0 
10.0 8.0 2.0 0.0 10.0 8.0 9.0 0.0 4.0 3.0 3.0 5.0 9.0 2.0 4.0 5.0 2.0 3.0 3.0 3.0 4.0 0.0 5.0 10.0 5.0 5.0 10.0 9.0 1.0 0.0 4.0 6.0 10.0 5.0 2.0 2.0 7.0 4.0 8.0 5.0 7.0 7.0 6.0 7.0 10.0 9.0 9.0 1.0 6.0 -391.0 8.0 8.0 1.0 2.0 7.0 5.0 9.0 6.0 3.0 1.0 8.0 3.0 3.0 9.0 3.0 3.0 6.0 0.0 8.0 10.0 2.0 5.0 3.0 6.0 3.0 9.0 3.0 
5.0 2.0 9.0 9.0 10.0 8.0 1.0 2.0 8.0 9.0 5.0 4.0 6.0 8.0 0.0 2.0 0.0 9.0 8.0 2.0 6.0 4.0 7.0 0.0 1.0 10.0 4.0 3.0 0.0 7.0 4.0 5.0 9.0 10.0 4.0 0.0 8.0 6.0 3.0 1.0 1.0 10.0 8.0 7.0 10.0 9.0 7.0 9.0 6.0 8.0 -421.0 3.0 2.0 10.0 8.0 5.0 4.0 9.0 6.0 3.0 5.0 2.0 6.0 3.0 8.0 8.0 2.0 10.0 3.0 9.0 10.0 0.0 3.0 6.0 8.0 9.0 5.0 
4.0 9.0 1.0 6.0 4.0 2.0 3.0 1.0 9.0 6.0 4.0 2.0 6.0 5.0 0.0 2.0 8.0 0.0 10.0 6.0 10.0 9.0 8.0 10.0 6.0 6.0 1.0 4.0 7.0 10.0 8.0 6.0 8.0 9.0 4.0 1.0 10.0 4.0 4.0 9.0 5.0 10.0 3.0 6.0 10.0 9.0 5.0 5.0 6.0 8.0 3.0 -383.0 10.0 10.0 8.0 0.0 0.0 0.0 3.0 6.0 5.0 3.0 0.0 0.0 5.0 1.0 4.0 4.0 2.0 0.0 3.0 3.0 3.0 2.0 6.0 6.0 7.0 
5.0 4.0 9.0 10.0 8.0 1.0 9.0 0.0 6.0 3.0 6.0 7.0 0.0 10.0 1.0 0.0 6.0 2.0 6.0 10.0 4.0 8.0 3.0 3.0 3.0 2.0 6.0 5.0 0.0 2.0 4.0 6.0 10.0 1.0 10.0 1.0 4.0 6.0 9.0 7.0 5.0 7.0 2.0 9.0 9.0 3.0 5.0 9.0 5.0 1.0 2.0 10.0 -392.0 4.0 4.0 9.0 7.0 9.0 7.0 4.0 0.0 2.0 8.0 7.0 1.0 8.0 0.0 2.0 10.0 5.0 7.0 10.0 5.0 8.0 8.0 2.0 1.0 
0.0 8.0 2.0 5.0 7.0 8.0 2.0 10.0 0.0 6.0 2.0 3.0 5.0 3.0 5.0 10.0 8.0 3.0 3.0 8.0 3.0 7.0 10.0 4.0 4.0 10.0 1.0 4.0 10.0 8.0 1.0 6.0 10.0 10.0 1.0 1.0 3.0 2.0 5.0 5.0 10.0 8.0 8.0 5.0 2.0 4.0 7.0 10.0 3.0 2.0 10.0 10.0 4.0 -380.0 2.0 7.0 8.0 8.0 0.0 7.0 2.0 6.0 1.0 3.0 5.0 1.0 3.0 8.0 0.0 1.0 9.0 1.0 2.0 1.0 6.0 10.0 3.0 
6.0 2.0 8.0 7.0 8.0 9.0 10.0 5.0 0.0 9.0 6.0 3.0 6.0 4.0 8.0 7.0 7.0 4.0 0.0 5.0 0.0 5.0 3.0 1.0 8.0 3.0 2.0 4.0 7.0 7.0 10.0 8.0 0.0 2.0 1.0 4.0 6.0 0.0 0.0 10.0 0.0 5.0 9.0 9.0 9.0 10.0 8.0 1.0 5.0 7.0 8.0 8.0 4.0 2.0 -398.0 3.0 1.0 10.0 0.0 8.0 6.0 8.0 4.0 4.0 9.0 0.0 8.0 3.0 10.0 4.0 10.0 1.0 3.0 7.0 10.0 6.0 3.0 
7.0 4.0 2.0 10.0 1.0 9.0 3.0 5.0 10.0 5.0 9.0 4.0 4.0 9.0 10.0 9.0 1.0 1.0 3.0 1.0 2.0 4.0 7.0 6.0 0.0 10.0 3.0 0.0 4.0 3.0 4.0 8.0 8.0 10.0 5.0 6.0 8.0 9.0 6.0 5.0 3.0 1.0 2.0 2.0 7.0 8.0 2.0 1.0 2.0 5.0 5.0 0.0 9.0 7.0 3.0 -372.0 6.0 2.0 1.0 4.0 0.0 5.0 8.0 6.0 6.0 0.0 5.0 7.0 4.0 4.0 7.0 6.0 3.0 4.0 5.0 7.0 10.0 
1.0 2.0 7.0 8.0 5.0 6.0 2.0 7.0 8.0 2.0 7.0 9.0 9.0 6.0 7.0 6.0 2.0 9.0 7.0 8.0 2.0 4.0 5.0 3.0 0.0 0.0 0.0 7.0 0.0 3.0 6.0 1.0 10.0 9.0 9.0 1.0 2.0 9.0 0.0 0.0 2.0 9.0 4.0 5.0 3.0 1.0 1.0 0.0 3.0 9.0 4.0 0.0 7.0 8.0 1.0 6.0 -363.0 8.0 9.0 3.0 2.0 8.0 10.0 10.0 3.0 0.0 5.0 5.0 3.0 5.0 5.0 4.0 8.0 8.0 0.0 5.0 10.0 
6.0 6.0 9.0 1.0 6.0 4.0 4.0 3.0 2.0 10.0 8.0 1.0 4.0 5.0 8.0 2.0 8.0 6.0 5.0 7.0 5.0 1.0 7.0 0.0 3.0 10.0 0.0 3.0 10.0 8.0 2.0 0.0 9.0 3.0 0.0 1.0 0.0 5.0 5.0 10.0 9.0 4.0 1.0 1.0 3.0 8.0 6.0 10.0 2.0 6.0 9.0 0.0 9.0 8.0 10.0 2.0 8.0 -353.0 0.0 1.0 2.0 6.0 2.0 1.0 1.0 6.0 3.0 7.0 6.0 4.0 0.0 3.0 6.0 5.0 6.0 6.0 5.0 
8.0 9.0 10.0 8.0 9.0 3.0 3.0 8.0 0.0 7.0 6.0 6.0 2.0 4.0 9.0 9.0 8.0 4.0 0.0 7.0 1.0 1.0 2.0 5.0 8.0 9.0 0.0 8.0 3.0 0.0 9.0 8.0 1.0 3.0 6.0 10.0 8.0 4.0 5.0 7.0 10.0 7.0 5.0 1.0 4.0 9.0 1.0 0.0 7.0 3.0 6.0 3.0 7.0 0.0 0.0 1.0 9.0 0.0 -352.0 0.0 6.0 1.0 10.0 3.0 5.0 3.0 2.0 0.0 5.0 4.0 6.0 5.0 6.0 1.0 3.0 0.0 1.0 
6.0 1.0 2.0 0.0 2.0 3.0 10.0 4.0 5.0 1.0 2.0 9.0 4.0 8.0 3.0 3.0 0.0 0.0 6.0 5.0 5.0 1.0 3.0 0.0 10.0 8.0 7.0 9.0 10.0 9.0 4.0 5.0 7.0 8.0 7.0 9.0 6.0 9.0 7.0 2.0 3.0 10.0 4.0 1.0 1.0 8.0 5.0 7.0 7.0 1.0 3.0 6.0 4.0 7.0 8.0 4.0 3.0 1.0 0.0 -386.0 5.0 2.0 5.0 2.0 10.0 8.0 8.0 9.0 9.0 7.0 4.0 1.0 10.0 9.0 3.0 3.0 8.0 
3.0 6.0 3.0 1.0 1.0 7.0 4.0 8.0 0.0 9.0 8.0 10.0 8.0 3.0 1.0 1.0 0.0 2.0 3.0 2.0 1.0 0.0 4.0 1.0 0.0 8.0 7.0 5.0 4.0 2.0 9.0 7.0 5.0 8.0 4.0 2.0 4.0 0.0 9.0 8.0 9.0 8.0 10.0 8.0 8.0 8.0 6.0 4.0 8.0 8.0 5.0 5.0 0.0 2.0 6.0 0.0 2.0 2.0 6.0 5.0 -354.0 1.0 0.0 8.0 5.0 7.0 4.0 6.0 9.0 2.0 10.0 1.0 1.0 3.0 7.0 10.0 2.0 
1.0 2.0 0.0 4.0 5.0 7.0 0.0 8.0 6.0 0.0 2.0 9.0 10.0 6.0 8.0 0.0 4.0 3.0 9.0 5.0 1.0 6.0 10.0 7.0 9.0 2.0 2.0 7.0 9.0 2.0 1.0 5.0 5.0 9.0 3.0 2.0 10.0 6.0 2.0 5.0 3.0 5.0 9.0 9.0 5.0 2.0 0.0 0.0 6.0 3.0 2.0 3.0 2.0 6.0 8.0 5.0 8.0 6.0 1.0 2.0 1.0 -375.0 10.0 10.0 3.0 4.0 9.0 7.0 9.0 2.0 8.0 8.0 6.0 8.0 8.0 5.0 0.0 
3.0 4.0 3.0 7.0 0.0 2.0 1.0 5.0 1.0 5.0 6.0 2.0 2.0 4.0 0.0 9.0 7.0 2.0 2.0 5.0 2.0 6.0 7.0 4.0 8.0 7.0 1.0 7.0 10.0 7.0 2.0 10.0 5.0 0.0 5.0 3.0 5.0 5.0 3.0 7.0 7.0 2.0 1.0 5.0 10.0 0.0 0.0 2.0 3.0 3.0 6.0 0.0 8.0 1.0 4.0 8.0 10.0 2.0 10.0 5.0 0.0 10.0 -321.0 4.0 10.0 2.0 1.0 1.0 2.0 0.0 0.0 9.0 6.0 2.0 4.0 2.0 7.0 
2.0 1.0 9.0 6.0 8.0 3.0 7.0 7.0 9.0 6.0 6.0 5.0 8.0 3.0 10.0 9.0 6.0 3.0 9.0 6.0 10.0 4.0 3.0 2.0 10.0 1.0 7.0 5.0 7.0 2.0 4.0 6.0 3.0 0.0 4.0 5.0 5.0 8.0 6.0 5.0 0.0 4.0 1.0 10.0 5.0 8.0 3.0 7.0 0.0 9.0 3.0 0.0 7.0 3.0 4.0 6.0 10.0 1.0 3.0 2.0 8.0 10.0 4.0 -403.0 1.0 3.0 9.0 1.0 4.0 2.0 9.0 9.0 10.0 5.0 9.0 5.0 8.0 
6.0 4.0 10.0 5.0 4.0 1.0 6.0 1.0 6.0 5.0 0.0 3.0 9.0 1.0 8.0 4.0 8.0 4.0 3.0 8.0 0.0 4.0 2.0 5.0 6.0 7.0 5.0 3.0 5.0 0.0 1.0 5.0 10.0 10.0 0.0 3.0 5.0 8.0 2.0 10.0 4.0 1.0 0.0 5.0 10.0 3.0 3.0 3.0 3.0 3.0 8.0 5.0 1.0 5.0 9.0 6.0 3.0 1.0 5.0 10.0 5.0 3.0 10.0 1.0 -361.0 0.0 7.0 3.0 2.0 7.0 9.0 7.0 8.0 10.0 4.0 5.0 5.0 
9.0 1.0 6.0 9.0 9.0 6.0 9.0 1.0 1.0 9.0 8.0 3.0 4.0 3.0 9.0 5.0 10.0 0.0 9.0 2.0 3.0 4.0 7.0 6.0 2.0 6.0 6.0 9.0 3.0 2.0 1.0 7.0 1.0 10.0 4.0 2.0 2.0 5.0 5.0 4.0 6.0 9.0 4.0 9.0 4.0 10.0 4.0 3.0 5.0 3.0 8.0 1.0 8.0 1.0 0.0 0.0 0.0 6.0 3.0 8.0 7.0 4.0 2.0 3.0 0.0 -364.0 1.0 4.0 9.0 1.0 2.0 9.0 8.0 7.0 3.0 2.0 8.0 
3.0 4.0 2.0 6.0 3.0 9.0 10.0 4.0 10.0 2.0 0.0 1.0 0.0 5.0 6.0 4.0 8.0 4.0 1.0 6.0 1.0 7.0 8.0 4.0 3.0 5.0 3.0 9.0 10.0 7.0 0.0 7.0 10.0 10.0 3.0 9.0 7.0 6.0 6.0 5.0 9.0 0.0 1.0 6.0 3.0 1.0 3.0 7.0 7.0 6.0 2.0 4.0 0.0 3.0 8.0 5.0 5.0 3.0 2.0 8.0 4.0 9.0 1.0 9.0 7.0 1.0 -369.0 5.0 2.0 8.0 5.0 3.0 7.0 6.0 4.0 3.0 4.0 
1.0 2.0 2.0 4.0 4.0 1.0 3.0 9.0 3.0 5.0 9.0 8.0 9.0 7.0 4.0 2.0 8.0 10.0 8.0 1.0 4.0 8.0 1.0 8.0 10.0 5.0 10.0 5.0 10.0 7.0 10.0 3.0 5.0 4.0 3.0 0.0 5.0 5.0 5.0 4.0 8.0 4.0 10.0 8.0 3.0 1.0 4.0 5.0 6.0 0.0 10.0 4.0 2.0 8.0 3.0 7.0 5.0 7.0 0.0 9.0 6.0 7.0 1.0 1.0 3.0 4.0 5.0 -379.0 8.0 0.0 2.0 4.0 2.0 3.0 5.0 7.0 5.0 
7.0 3.0 5.0 6.0 7.0 8.0 2.0 8.0 0.0 2.0 2.0 9.0 6.0 6.0 7.0 3.0 0.0 6.0 5.0 8.0 9.0 2.0 6.0 6.0 7.0 8.0 4.0 10.0 3.0 10.0 6.0 1.0 4.0 7.0 10.0 2.0 0.0 3.0 8.0 6.0 7.0 5.0 2.0 4.0 7.0 0.0 1.0 2.0 7.0 8.0 3.0 2.0 10.0 0.0 10.0 4.0 3.0 6.0 5.0 9.0 9.0 9.0 2.0 4.0 2.0 9.0 2.0 8.0 -405.0 4.0 7.0 8.0 8.0 7.0 5.0 4.0 10.0 
10.0 9.0 0.0 5.0 9.0 9.0 8.0 8.0 1.0 0.0 2.0 0.0 2.0 10.0 7.0 4.0 5.0 0.0 10.0 10.0 2.0 6.0 6.0 1.0 8.0 5.0 5.0 10.0 7.0 2.0 8.0 7.0 8.0 10.0 8.0 0.0 9.0 9.0 0.0 10.0 6.0 8.0 9.0 10.0 2.0 10.0 0.0 4.0 6.0 10.0 9.0 0.0 5.0 1.0 4.0 4.0 5.0 4.0 4.0 7.0 2.0 2.0 0.0 2.0 7.0 1.0 8.0 0.0 4.0 -404.0 6.0 6.0 9.0 9.0 3.0 5.0 2.0 
10.0 4.0 7.0 4.0 10.0 7.0 8.0 0.0 2.0 4.0 5.0 8.0 10.0 10.0 6.0 7.0 7.0 8.0 5.0 5.0 6.0 0.0 4.0 7.0 7.0 9.0 8.0 9.0 7.0 10.0 8.0 6.0 10.0 6.0 2.0 2.0 9.0 8.0 0.0 3.0 0.0 5.0 7.0 4.0 5.0 4.0 0.0 1.0 7.0 2.0 10.0 3.0 7.0 9.0 10.0 7.0 5.0 0.0 6.0 4.0 10.0 8.0 0.0 9.0 9.0 2.0 5.0 2.0 7.0 6.0 -431.0 0.0 5.0 0.0 10.0 8.0 6.0 
4.0 0.0 9.0 8.0 6.0 6.0 3.0 9.0 6.0 1.0 5.0 1.0 2.0 2.0 2.0 1.0 7.0 9.0 7.0 8.0 2.0 4.0 8.0 6.0 1.0 7.0 0.0 6.0 2.0 10.0 1.0 9.0 10.0 4.0 7.0 10.0 3.0 6.0 5.0 1.0 6.0 1.0 5.0 1.0 6.0 4.0 2.0 0.0 10.0 5.0 0.0 3.0 10.0 1.0 1.0 6.0 4.0 3.0 5.0 1.0 1.0 8.0 9.0 9.0 7.0 9.0 3.0 4.0 8.0 6.0 0.0 -367.0 0.0 7.0 6.0 8.0 10.0 
3.0 0.0 10.0 4.0 8.0 7.0 10.0 7.0 10.0 2.0 4.0 10.0 1.0 7.0 9.0 2.0 5.0 2.0 0.0 2.0 4.0 9.0 3.0 2.0 2.0 10.0 7.0 3.0 1.0 7.0 10.0 8.0 0.0 5.0 5.0 7.0 7.0 6.0 1.0 0.0 2.0 5.0 5.0 5.0 6.0 4.0 3.0 7.0 7.0 3.0 3.0 3.0 5.0 2.0 3.0 3.0 8.0 6.0 6.0 10.0 1.0 6.0 6.0 10.0 8.0 8.0 7.0 2.0 8.0 9.0 5.0 0.0 -400.0 9.0 7.0 10.0 8.0 
9.0 0.0 6.0 5.0 2.0 9.0 5.0 7.0 6.0 0.0 6.0 3.0 7.0 7.0 9.0 6.0 1.0 0.0 3.0 9.0 10.0 10.0 3.0 8.0 2.0 2.0 7.0 2.0 6.0 5.0 5.0 4.0 2.0 9.0 3.0 4.0 2.0 10.0 4.0 9.0 9.0 3.0 4.0 2.0 2.0 1.0 0.0 6.0 9.0 6.0 6.0 2.0 8.0 1.0 7.0 4.0 8.0 5.0 1.0 9.0 3.0 8.0 2.0 5.0 10.0 7.0 6.0 3.0 7.0 9.0 0.0 7.0 9.0 -391.0 5.0 8.0 2.0 
3.0 0.0 2.0 5.0 10.0 1.0 1.0 2.0 1.0 2.0 8.0 3.0 2.0 8.0 3.0 7.0 9.0 10.0 7.0 6.0 8.0 4.0 4.0 3.0 2.0 5.0 3.0 7.0 1.0 5.0 1.0 2.0 5.0 0.0 4.0 0.0 2.0 2.0 2.0 10.0 0.0 2.0 0.0 10.0 2.0 5.0 6.0 0.0 6.0 3.0 8.0 6.0 8.0 6.0 10.0 5.0 0.0 6.0 3.0 3.0 7.0 8.0 4.0 9.0 4.0 3.0 4.0 5.0 5.0 3.0 10.0 6.0 7.0 5.0 -344.0 6.0 9.0 
4.0 0.0 6.0 5.0 2.0 2.0 2.0 3.0 9.0 3.0 10.0 8.0 2.0 9.0 7.0 9.0 10.0 1.0 8.0 5.0 0.0 0.0 9.0 0.0 2.0 8.0 6.0 10.0 0.0 6.0 4.0 9.0 0.0 9.0 8.0 5.0 10.0 5.0 7.0 0.0 8.0 0.0 8.0 9.0 8.0 4.0 6.0 2.0 3.0 9.0 9.0 6.0 2.0 10.0 6.0 7.0 5.0 6.0 0.0 3.0 10.0 5.0 2.0 5.0 5.0 2.0 3.0 7.0 4.0 5.0 8.0 8.0 10.0 8.0 6.0 -411.0 9.0 
1.0 0.0 10.0 10.0 9.0 0.0 1.0 7.0 10.0 10.0 7.0 10.0 5.0 4.0 0.0 4.0 2.0 4.0 6.0 5.0 8.0 8.0 2.0 9.0 9.0 7.0 2.0 7.0 5.0 9.0 3.0 2.0 4.0 10.0 4.0 6.0 9.0 4.0 10.0 0.0 0.0 8.0 9.0 7.0 0.0 0.0 4.0 8.0 1.0 3.0 5.0 7.0 1.0 3.0 3.0 10.0 10.0 5.0 1.0 8.0 2.0 0.0 7.0 8.0 5.0 8.0 4.0 5.0 10.0 2.0 6.0 10.0 8.0 2.0 9.0 9.0 -411.0 

